c This is QMaxSAT 2017 based on 14.07
c This is Glucose 3.0
c This is MiniSat 2.2.0
c WARNING: for repeatability, setting FPU to use double precision
c card = mrwto, comp = 0, pmodel = 0, narr = 8, mct = 42, verb = 0
cr firstCPXsol 0 0 0
c top = 127531
c |  Number of variables:    81352                                            |
c |  Number of clauses:      58256506                                         |
c |  Weight of hard clauses: 127531                                           |
c |  Number of soft clauses: 13776                                            |
c |  Number of unit soft clauses: 13776                                       |
c |  Maximum Cardinality (by unit): 1020240      (1020240     )               |
c last restart ## conflicts  :  19 25943 
o 785 | cpuTime 5.62388 s
c Sum of weights = 127530
c A number of soft clauses remained = 1722
c MRWTO encoding for Pseudo-Boolean Constraints
c sizeMax=785
c No.0 Divisor=10	generated by pow1
c No.1 Divisor=10	generated by pow1
c No.2 Divisor=10	generated by pow1
c p0= 10	p1= 10	p2= 10	
c number of digits = 4
c linkingVar[0].size = 10, linkingVar[1].size = 10, linkingVar[2].size = 8, linkingVar[3].size = 1, 
c Pseudo-Boolean Constraints: 32512 variables and 259543 clauses
c Sum of weights = 127530
c A number of soft clauses remained = 1722
c MRWTO encoding for Pseudo-Boolean Constraints
c sizeMax=785
c No.0 Divisor=10	generated by pow1
c No.1 Divisor=10	generated by pow1
c No.2 Divisor=10	generated by pow1
c p0= 10	p1= 10	p2= 10	
c number of digits = 4
c linkingVar[0].size = 10, linkingVar[1].size = 10, linkingVar[2].size = 8, linkingVar[3].size = 1, 
c Pseudo-Boolean Constraints: 32512 variables and 259543 clauses
c Sum of weights = 127530
c A number of soft clauses remained = 1722
c MRWTO encoding for Pseudo-Boolean Constraints
c sizeMax=785
c No.0 Divisor=10	generated by pow1
c No.1 Divisor=10	generated by pow1
c No.2 Divisor=10	generated by pow1
c p0= 10	p1= 10	p2= 10	
c number of digits = 4
c linkingVar[0].size = 10, linkingVar[1].size = 10, linkingVar[2].size = 8, linkingVar[3].size = 1, 
c Pseudo-Boolean Constraints: 32512 variables and 259543 clauses
c Sum of weights = 127530
c A number of soft clauses remained = 1722
c MRWTO encoding for Pseudo-Boolean Constraints
c sizeMax=785
c No.0 Divisor=10	generated by pow1
c No.1 Divisor=10	generated by pow1
c No.2 Divisor=10	generated by pow1
c p0= 10	p1= 10	p2= 10	
c number of digits = 4
c linkingVar[0].size = 10, linkingVar[1].size = 10, linkingVar[2].size = 8, linkingVar[3].size = 1, 
c Pseudo-Boolean Constraints: 32512 variables and 259543 clauses
c Sum of weights = 127530
c A number of soft clauses remained = 1722
c MRWTO encoding for Pseudo-Boolean Constraints
c sizeMax=785
c No.0 Divisor=10	generated by pow1
c No.1 Divisor=10	generated by pow1
c No.2 Divisor=10	generated by pow1
c p0= 10	p1= 10	p2= 10	
c number of digits = 4
c linkingVar[0].size = 10, linkingVar[1].size = 10, linkingVar[2].size = 8, linkingVar[3].size = 1, 
c Pseudo-Boolean Constraints: 32512 variables and 259543 clauses
c Sum of weights = 127530
c A number of soft clauses remained = 1722
c MRWTO encoding for Pseudo-Boolean Constraints
c sizeMax=785
c No.0 Divisor=10	generated by pow1
c No.1 Divisor=10	generated by pow1
c No.2 Divisor=10	generated by pow1
c p0= 10	p1= 10	p2= 10	
c number of digits = 4
c linkingVar[0].size = 10, linkingVar[1].size = 10, linkingVar[2].size = 8, linkingVar[3].size = 1, 
c Pseudo-Boolean Constraints: 32512 variables and 259543 clauses
c Sum of weights = 127530
c A number of soft clauses remained = 1722
c MRWTO encoding for Pseudo-Boolean Constraints
c sizeMax=785
c No.0 Divisor=10	generated by pow1
c No.1 Divisor=10	generated by pow1
c No.2 Divisor=10	generated by pow1
c p0= 10	p1= 10	p2= 10	
c number of digits = 4
c linkingVar[0].size = 10, linkingVar[1].size = 10, linkingVar[2].size = 8, linkingVar[3].size = 1, 
c Pseudo-Boolean Constraints: 32512 variables and 259543 clauses
c Sum of weights = 127530
c A number of soft clauses remained = 1722
c MRWTO encoding for Pseudo-Boolean Constraints
c sizeMax=785
c No.0 Divisor=10	generated by pow1
c No.1 Divisor=10	generated by pow1
c No.2 Divisor=10	generated by pow1
c p0= 10	p1= 10	p2= 10	
c number of digits = 4
c linkingVar[0].size = 10, linkingVar[1].size = 10, linkingVar[2].size = 8, linkingVar[3].size = 1, 
c Pseudo-Boolean Constraints: 32512 variables and 259543 clauses
c last restart ## conflicts  :  185 37736 
o 641 | cpuTime 79.4414 s
c last restart ## conflicts  :  240 52444 
o 631 | cpuTime 79.9776 s
c last restart ## conflicts  :  168 35435 
o 607 | cpuTime 125.548 s
c last restart ## conflicts  :  619 27767 
o 591 | cpuTime 319.207 s
c last restart ## conflicts  :  1108 29543 
o 533 | cpuTime 532.283 s
c last restart ## conflicts  :  532 28500 
o 513 | cpuTime 921.35 s
c last restart ## conflicts  :  574 25816 
o 502 | cpuTime 978.343 s
c last restart ## conflicts  :  339 42100 
o 490 | cpuTime 1316.81 s
c last restart ## conflicts  :  2245 30937 
o 469 | cpuTime 1664.21 s
c last restart ## conflicts  :  137 49084 
o 468 | cpuTime 1664.43 s
c last restart ## conflicts  :  1545 28322 
o 439 | cpuTime 2388.76 s
c last restart ## conflicts  :  3427 22736 
o 435 | cpuTime 2634.75 s
s UNKNOWN
c Search is stopped by a limit (maybe time-limit)
cr positiVarArr: [ | 3@1(1->3) | 97@1(3->13) | 520@1(13->16) | 649@1(16->19) | 715@1(18->1) | 774@1(19->18) | 1770@2(1->6) | 1891@2(4->1) | 2003@2(6->29) | 2598@2(20->36) | 2960@2(29->20) | 3196@2(35->4) | 3269@2(36->35) | 3543@3(1->15) | 3979@3(11->31) | 4127@3(15->11) | 4789@3(31->1) | 5329@4(1->37) | 5660@4(9->32) | 6552@4(30->42) | 6624@4(32->30) | 6813@4(37->9) | 7015@4(42->1) | 7058@5(1->2) | 7131@5(2->33) | 7262@5(5->38) | 7316@5(7->8) | 7351@5(8->1) | 8405@5(33->5) | 8617@5(38->7) | 8832@6(1->12) | 9304@6(12->22) | 9703@6(22->1) | 10612@7(1->28) | 11131@7(14->1) | 11732@7(28->14) | 12389@8(1->41) | 12751@8(10->25) | 13043@8(17->23) | 13205@8(21->17) | 13296@8(23->24) | 13340@8(24->26) | 13377@8(25->21) | 13425@8(26->27) | 13474@8(27->34) | 13735@8(34->1) | 13984@8(39->40) | 13996@8(40->10) | 14067@8(41->39) | ]
cr the 1-th chain: [ 1->3->13->16->19->18->1 ] (#non-depot=5) {#cumul.=6}
cr the 2-th chain: [ 1->6->29->20->36->35->4->1 ] (#non-depot=6) {#cumul.=12}
cr the 3-th chain: [ 1->15->11->31->1 ] (#non-depot=3) {#cumul.=15}
cr the 4-th chain: [ 1->37->9->32->30->42->1 ] (#non-depot=5) {#cumul.=20}
cr the 5-th chain: [ 1->2->33->5->38->7->8->1 ] (#non-depot=6) {#cumul.=26}
cr the 6-th chain: [ 1->12->22->1 ] (#non-depot=2) {#cumul.=28}
cr the 7-th chain: [ 1->28->14->1 ] (#non-depot=2) {#cumul.=30}
cr the 8-th chain: [ 1->41->39->40->10->25->21->17->23->24->26->27->34->1 ] (#non-depot=12) {#cumul.=42}
c Latest Answer = 0 by 13 loops
c restarts              : 61446
c conflicts             : 8880852        (2480 /sec)
c decisions             : 389927049      (0.00 % random) (108876 /sec)
c propagations          : 21517112469    (6008049 /sec)
c conflict literals     : 3836350458     (12.56 % deleted)
c Memory used           : 5554.00 MB
c CPU time              : 3581.38 s
